Copyright (C) 2013-2015, Filipe Brandao
Build (method = -2)
  #dp: 499
  Step-3' Graph: 32 vertices and 189 arcs (0.00s)
  Step-4' Graph: 27 vertices and 179 arcs (0.00s)
  #V4/#V3 = 0.84
  #A4/#A3 = 0.95
Ready! (0.00s)
Optimize a model with 66 rows, 180 columns and 490 nonzeros
Found heuristic solution: objective 39
Presolve removed 38 rows and 70 columns
Presolve time: 0.00s
Presolved: 28 rows, 110 columns, 273 nonzeros
Variable types: 0 continuous, 110 integer (53 binary)
Optimize a model with 28 rows, 110 columns and 273 nonzeros
Presolved: 28 rows, 110 columns, 273 nonzeros

Root barrier log...

Ordering time: 0.00s

Barrier statistics:
 AA' NZ     : 1.190e+02
 Factor NZ  : 2.780e+02
 Factor Ops : 3.250e+03 (less than 1 second per iteration)
 Threads    : 1

                  Objective                Residual
Iter       Primal          Dual         Primal    Dual     Compl     Time
   0   1.00026764e+02 -1.42331748e+02  3.75e+01 3.45e-01  2.80e+00     0s
   1   4.83402109e+01 -3.50677882e+01  3.08e+00 3.33e-16  4.73e-01     0s
   2   3.67011346e+01  2.28318997e+01  9.90e-05 3.33e-16  6.15e-02     0s
   3   3.26212039e+01  3.05735426e+01  7.93e-06 5.56e-04  9.05e-03     0s
   4   3.20248957e+01  3.19331159e+01  4.77e-08 1.55e-16  4.05e-04     0s
   5   3.20000048e+01  3.19999906e+01  1.18e-11 2.88e-16  6.26e-08     0s
   6   3.20000000e+01  3.20000000e+01  7.33e-15 2.64e-16  6.29e-14     0s

Barrier solved model in 6 iterations and 0.00 seconds
Optimal objective 3.20000000e+01


Root relaxation: objective 3.200000e+01, 39 iterations, 0.00 seconds

    Nodes    |    Current Node    |     Objective Bounds      |     Work
 Expl Unexpl |  Obj  Depth IntInf | Incumbent    BestBd   Gap | It/Node Time

*    0     0               0      32.0000000   32.00000  0.00%     -    0s

Explored 0 nodes (39 simplex iterations) in 0.00 seconds
Thread count was 1 (of 4 available processors)

Optimal solution found (tolerance 0.00e+00)
Best objective 3.200000000000e+01, best bound 3.200000000000e+01, gap 0.0%
Preprocessing time: 0.00 seconds
Gurobi run time: 0.00 seconds
Total run time: 0.00 seconds
Objective: 32
Solution:
1 x [i=1]
1 x [i=2]
1 x [i=3]
1 x [i=4, i=39]
1 x [i=5, i=38]
1 x [i=6]
1 x [i=7]
1 x [i=8]
2 x [i=9]
1 x [i=10, i=36]
2 x [i=11]
1 x [i=11, i=35]
1 x [i=12, i=34]
1 x [i=13, i=33]
1 x [i=14]
2 x [i=15, i=32]
1 x [i=16, i=31]
1 x [i=17]
1 x [i=18]
1 x [i=19, i=29]
1 x [i=20, i=29]
1 x [i=21]
1 x [i=22, i=37]
2 x [i=23, i=30]
1 x [i=24, i=27]
2 x [i=25, i=26]
1 x [i=26, i=28]
